100 2 100
67 57 27 49 35 35 95 31 89 95 41 91 58 59 26 29 19 28 4 28 62 5 98 75 16 1 22 66 13 35 68 80 44 47 81 79 82 76 11 23 72 4 14 82 63 92 11 34 21 67 62 35 72 60 62 40 14 84 58 27 71 27 59 16 26 40 47 61 68 58 36 92 14 3 74 77 95 37 12 68 4 26 55 29 39 18 21 53 2 80 80 26 59 39 42 37 31 89 98 51 
